3 10
107 90 97 
0 25 15 44 34 62 52 22 7 35 23 16 32 2
1 66 56 42 32 27 17 2 47 6 79 70 77 2
2 46 36 80 70 23 13 13 31 6 6 96 65 2
3 54 44 63 53 79 69 21 24 78 13 45 37 1
4 72 62 42 32 13 3 61 78 48 64 6 69 3
5 92 82 100 90 101 91 71 92 83 21 6 40 2
6 57 47 11 1 58 48 62 12 22 84 91 11 1
7 40 30 24 14 101 91 95 69 67 87 19 49 3
8 106 96 48 38 99 89 42 90 67 87 16 48 1
9 81 71 50 40 26 16 24 18 10 27 13 16 3
